34
100
80	1
77	1
76	2
72	1
70	1
69	1
68	1
67	1
65	2
62	1
61	1
60	1
59	2
57	1
52	2
51	1
50	4
48	2
46	1
45	3
43	3
38	1
37	1
36	1
34	2
31	2
29	1
24	1
19	1
18	2
15	2
12	1
11	1
10	1
